cluster_editing/exact/simple_reductions/graphs/exact075.gr
p cep 144 1191
1 12
1 14
1 15
1 16
1 17
1 20
1 28
1 30
1 34
1 38
1 47
1 48
1 54
1 56
1 58
1 60
1 61
1 63
1 65
1 71
1 72
1 79
1 82
1 85
1 86
1 88
1 89
1 92
1 97
1 98
1 100
1 101
1 102
1 105
1 107
1 108
1 110
1 113
1 114
1 116
1 119
1 121
1 123
1 129
1 132
1 136
1 137
1 138
1 141
2 19
2 53
2 68
2 115
2 125
3 18
3 64
3 74
3 94
3 99
3 104
3 109
4 5
4 32
4 78
4 81
4 87
4 90
4 91
4 108
4 139
5 32
5 78
5 81
5 87
5 90
5 91
5 139
6 39
6 111
7 22
8 62
9 37
9 112
11 96
11 106
11 143
12 14
12 30
12 54
12 61
12 63
12 71
12 89
12 100
12 121
12 138
12 141
13 26
13 27
13 45
13 69
14 15
14 16
14 17
14 20
14 23
14 28
14 30
14 34
14 38
14 47
14 48
14 54
14 56
14 58
14 60
14 61
14 63
14 65
14 71
14 72
14 79
14 82
14 85
14 86
14 88
14 89
14 92
14 97
14 98
14 100
14 101
14 102
14 105
14 107
14 108
14 110
14 113
14 114
14 116
14 119
14 121
14 123
14 129
14 132
14 136
14 137
14 138
14 141
15 16
15 17
15 20
15 28
15 30
15 34
15 38
15 47
15 48
15 56
15 58
15 60
15 61
15 63
15 65
15 72
15 79
15 82
15 85
15 86
15 88
15 92
15 97
15 100
15 101
15 102
15 105
15 107
15 108
15 110
15 113
15 114
15 116
15 119
15 121
15 123
15 129
15 132
15 136
15 137
15 138
15 141
16 17
16 20
16 28
16 30
16 34
16 38
16 47
16 48
16 56
16 58
16 60
16 61
16 63
16 65
16 72
16 79
16 82
16 85
16 86
16 88
16 92
16 97
16 100
16 101
16 102
16 105
16 107
16 108
16 110
16 113
16 114
16 116
16 119
16 121
16 123
16 129
16 132
16 136
16 137
16 138
16 141
17 20
17 28
17 30
17 34
17 38
17 47
17 48
17 56
17 58
17 60
17 61
17 63
17 65
17 72
17 79
17 85
17 86
17 88
17 92
17 97
17 100
17 101
17 102
17 105
17 107
17 108
17 110
17 113
17 114
17 116
17 119
17 121
17 123
17 129
17 132
17 136
17 137
17 138
17 141
18 64
18 74
18 94
18 99
18 104
18 109
19 24
19 40
19 53
19 70
19 76
19 77
19 80
19 95
19 115
19 122
19 125
20 28
20 34
20 38
20 47
20 48
20 56
20 58
20 60
20 65
20 72
20 79
20 85
20 86
20 88
20 92
20 97
20 101
20 102
20 105
20 113
20 114
20 116
20 119
20 121
20 123
20 129
20 132
20 136
20 137
20 138
20 141
21 33
21 44
21 52
21 73
21 118
21 135
23 113
23 117
23 127
23 138
24 40
24 53
24 70
24 76
24 77
24 80
24 95
24 122
24 125
26 27
26 45
26 69
27 45
27 69
28 30
28 34
28 38
28 47
28 48
28 56
28 58
28 60
28 61
28 63
28 65
28 72
28 79
28 82
28 85
28 86
28 88
28 92
28 97
28 98
28 100
28 101
28 102
28 105
28 107
28 108
28 110
28 113
28 114
28 116
28 119
28 121
28 123
28 129
28 132
28 136
28 137
28 138
28 141
30 34
30 38
30 47
30 54
30 58
30 60
30 61
30 63
30 65
30 71
30 72
30 79
30 82
30 85
30 86
30 88
30 89
30 97
30 100
30 102
30 105
30 108
30 110
30 113
30 114
30 116
30 119
30 121
30 123
30 129
30 132
30 136
30 137
30 138
30 141
32 78
32 81
32 87
32 90
32 91
32 108
32 139
33 44
33 52
33 73
33 118
33 135
34 38
34 47
34 48
34 56
34 58
34 60
34 61
34 63
34 65
34 72
34 79
34 82
34 85
34 86
34 88
34 92
34 97
34 100
34 101
34 102
34 105
34 107
34 108
34 110
34 113
34 114
34 116
34 119
34 121
34 123
34 129
34 132
34 136
34 137
34 138
34 141
35 49
35 93
36 55
37 112
38 47
38 48
38 56
38 58
38 60
38 61
38 63
38 65
38 72
38 79
38 82
38 85
38 86
38 88
38 92
38 97
38 100
38 101
38 102
38 105
38 107
38 108
38 110
38 113
38 114
38 116
38 119
38 121
38 123
38 129
38 132
38 136
38 137
38 138
38 141
39 111
40 53
40 70
40 76
40 77
40 80
40 95
40 122
40 125
41 140
44 52
44 73
44 118
44 135
45 69
47 48
47 56
47 58
47 60
47 61
47 63
47 65
47 72
47 79
47 82
47 85
47 86
47 88
47 92
47 97
47 100
47 101
47 102
47 105
47 107
47 108
47 110
47 113
47 114
47 116
47 119
47 121
47 123
47 129
47 132
47 136
47 137
47 138
47 141
48 56
48 58
48 60
48 65
48 72
48 79
48 85
48 86
48 88
48 92
48 97
48 101
48 102
48 105
48 107
48 110
48 113
48 114
48 116
48 119
48 121
48 123
48 129
48 132
48 136
48 137
48 138
48 141
49 93
52 73
52 118
52 135
53 68
53 70
53 76
53 77
53 80
53 95
53 115
53 122
53 125
54 60
54 61
54 63
54 71
54 89
54 97
54 100
54 121
54 138
54 141
56 58
56 60
56 65
56 72
56 79
56 85
56 86
56 88
56 92
56 97
56 101
56 102
56 105
56 113
56 114
56 116
56 119
56 121
56 123
56 129
56 132
56 136
56 137
56 138
56 141
58 60
58 61
58 63
58 65
58 72
58 79
58 82
58 85
58 86
58 88
58 92
58 97
58 100
58 101
58 102
58 105
58 107
58 108
58 110
58 113
58 114
58 116
58 119
58 121
58 123
58 129
58 132
58 136
58 137
58 138
58 141
60 61
60 63
60 65
60 72
60 79
60 82
60 85
60 86
60 88
60 89
60 92
60 97
60 98
60 100
60 101
60 102
60 105
60 107
60 108
60 110
60 113
60 114
60 116
60 119
60 121
60 123
60 129
60 132
60 136
60 137
60 138
60 141
61 63
61 65
61 71
61 72
61 79
61 82
61 85
61 86
61 88
61 89
61 97
61 98
61 100
61 102
61 105
61 108
61 110
61 113
61 114
61 116
61 119
61 121
61 123
61 129
61 132
61 136
61 137
61 138
61 141
63 65
63 71
63 72
63 79
63 82
63 85
63 86
63 88
63 89
63 97
63 98
63 100
63 102
63 105
63 108
63 110
63 113
63 114
63 116
63 119
63 121
63 123
63 129
63 132
63 136
63 137
63 138
63 141
64 74
64 94
64 99
64 104
65 72
65 79
65 82
65 85
65 86
65 88
65 92
65 97
65 98
65 100
65 101
65 102
65 105
65 107
65 108
65 110
65 113
65 114
65 116
65 119
65 121
65 123
65 129
65 132
65 136
65 137
65 138
65 141
68 115
70 76
70 77
70 80
70 95
70 115
70 122
70 125
71 89
71 100
71 121
71 138
71 141
72 79
72 82
72 85
72 86
72 88
72 92
72 97
72 100
72 101
72 102
72 105
72 107
72 108
72 110
72 113
72 114
72 116
72 119
72 121
72 123
72 129
72 132
72 136
72 137
72 138
72 141
73 118
73 135
74 94
74 99
74 104
74 109
75 142
76 77
76 80
76 95
76 122
76 125
77 80
77 95
77 122
77 125
78 87
78 91
78 139
79 82
79 85
79 86
79 88
79 92
79 97
79 98
79 100
79 101
79 102
79 105
79 107
79 108
79 110
79 113
79 114
79 116
79 119
79 121
79 123
79 129
79 132
79 136
79 137
79 138
79 141
80 95
80 122
80 125
81 87
81 90
81 108
81 139
82 85
82 86
82 88
82 97
82 100
82 102
82 105
82 108
82 113
82 116
82 119
82 121
82 132
82 136
82 137
82 138
82 141
83 130
85 86
85 88
85 92
85 97
85 100
85 101
85 102
85 105
85 107
85 108
85 110
85 113
85 114
85 116
85 119
85 121
85 123
85 129
85 132
85 136
85 137
85 138
85 141
86 88
86 92
86 97
86 98
86 100
86 101
86 102
86 105
86 107
86 108
86 110
86 113
86 114
86 116
86 119
86 121
86 123
86 129
86 132
86 136
86 137
86 138
86 141
87 90
87 91
87 139
88 92
88 97
88 98
88 100
88 101
88 102
88 105
88 107
88 108
88 110
88 113
88 114
88 116
88 119
88 121
88 123
88 129
88 132
88 136
88 137
88 138
88 141
89 97
89 100
89 121
89 138
89 141
90 108
90 139
91 139
92 97
92 101
92 102
92 105
92 113
92 114
92 116
92 119
92 121
92 123
92 129
92 132
92 136
92 137
92 138
92 141
94 99
94 104
94 109
95 122
95 125
96 106
96 143
97 98
97 100
97 101
97 102
97 105
97 107
97 108
97 110
97 113
97 114
97 116
97 119
97 121
97 123
97 129
97 132
97 136
97 137
97 138
97 141
98 100
98 105
98 113
98 121
98 132
98 136
98 138
98 141
99 104
99 109
100 102
100 105
100 108
100 110
100 113
100 114
100 116
100 119
100 121
100 123
100 129
100 132
100 136
100 137
100 138
100 141
101 102
101 105
101 107
101 110
101 113
101 114
101 116
101 119
101 121
101 123
101 129
101 132
101 136
101 137
101 138
101 141
102 105
102 107
102 108
102 110
102 113
102 114
102 116
102 119
102 121
102 123
102 129
102 132
102 136
102 137
102 138
102 141
104 109
105 107
105 108
105 110
105 113
105 114
105 116
105 119
105 121
105 123
105 129
105 132
105 136
105 137
105 138
105 141
106 143
107 113
107 114
107 116
107 119
107 121
107 123
107 129
107 132
107 136
107 137
107 138
107 141
108 113
108 116
108 119
108 121
108 123
108 132
108 136
108 137
108 138
108 139
108 141
110 113
110 114
110 116
110 119
110 121
110 123
110 132
110 136
110 137
110 138
110 141
113 114
113 116
113 119
113 121
113 123
113 129
113 132
113 136
113 137
113 138
113 141
114 116
114 119
114 121
114 123
114 129
114 132
114 136
114 137
114 138
114 141
115 125
116 119
116 121
116 123
116 129
116 132
116 136
116 137
116 138
116 141
117 127
118 135
119 121
119 123
119 129
119 132
119 136
119 137
119 138
119 141
121 123
121 129
121 132
121 136
121 137
121 138
121 141
122 125
123 129
123 132
123 136
123 137
123 138
123 141
129 132
129 136
129 137
129 138
129 141
132 136
132 137
132 138
132 141
136 137
136 138
136 141
137 138
137 141
138 141
