cluster_editing/exact/simple_reductions/graphs/exact075.gr.metis
144 1191
12 14 15 16 17 20 28 30 34 38 47 48 54 56 58 60 61 63 65 71 72 79 82 85 86 88 89 92 97 98 100 101 102 105 107 108 110 113 114 116 119 121 123 129 132 136 137 138 141 
19 53 68 115 125 
18 64 74 94 99 104 109 
5 32 78 81 87 90 91 108 139 
4 32 78 81 87 90 91 139 
39 111 
22 
62 
37 112 

96 106 143 
1 14 30 54 61 63 71 89 100 121 138 141 
26 27 45 69 
1 12 15 16 17 20 23 28 30 34 38 47 48 54 56 58 60 61 63 65 71 72 79 82 85 86 88 89 92 97 98 100 101 102 105 107 108 110 113 114 116 119 121 123 129 132 136 137 138 141 
1 14 16 17 20 28 30 34 38 47 48 56 58 60 61 63 65 72 79 82 85 86 88 92 97 100 101 102 105 107 108 110 113 114 116 119 121 123 129 132 136 137 138 141 
1 14 15 17 20 28 30 34 38 47 48 56 58 60 61 63 65 72 79 82 85 86 88 92 97 100 101 102 105 107 108 110 113 114 116 119 121 123 129 132 136 137 138 141 
1 14 15 16 20 28 30 34 38 47 48 56 58 60 61 63 65 72 79 85 86 88 92 97 100 101 102 105 107 108 110 113 114 116 119 121 123 129 132 136 137 138 141 
3 64 74 94 99 104 109 
2 24 40 53 70 76 77 80 95 115 122 125 
1 14 15 16 17 28 34 38 47 48 56 58 60 65 72 79 85 86 88 92 97 101 102 105 113 114 116 119 121 123 129 132 136 137 138 141 
33 44 52 73 118 135 
7 
14 113 117 127 138 
19 40 53 70 76 77 80 95 122 125 

13 27 45 69 
13 26 45 69 
1 14 15 16 17 20 30 34 38 47 48 56 58 60 61 63 65 72 79 82 85 86 88 92 97 98 100 101 102 105 107 108 110 113 114 116 119 121 123 129 132 136 137 138 141 

1 12 14 15 16 17 28 34 38 47 54 58 60 61 63 65 71 72 79 82 85 86 88 89 97 100 102 105 108 110 113 114 116 119 121 123 129 132 136 137 138 141 

4 5 78 81 87 90 91 108 139 
21 44 52 73 118 135 
1 14 15 16 17 20 28 30 38 47 48 56 58 60 61 63 65 72 79 82 85 86 88 92 97 100 101 102 105 107 108 110 113 114 116 119 121 123 129 132 136 137 138 141 
49 93 
55 
9 112 
1 14 15 16 17 20 28 30 34 47 48 56 58 60 61 63 65 72 79 82 85 86 88 92 97 100 101 102 105 107 108 110 113 114 116 119 121 123 129 132 136 137 138 141 
6 111 
19 24 53 70 76 77 80 95 122 125 
140 


21 33 52 73 118 135 
13 26 27 69 

1 14 15 16 17 20 28 30 34 38 48 56 58 60 61 63 65 72 79 82 85 86 88 92 97 100 101 102 105 107 108 110 113 114 116 119 121 123 129 132 136 137 138 141 
1 14 15 16 17 20 28 34 38 47 56 58 60 65 72 79 85 86 88 92 97 101 102 105 107 110 113 114 116 119 121 123 129 132 136 137 138 141 
35 93 


21 33 44 73 118 135 
2 19 24 40 68 70 76 77 80 95 115 122 125 
1 12 14 30 60 61 63 71 89 97 100 121 138 141 
36 
1 14 15 16 17 20 28 34 38 47 48 58 60 65 72 79 85 86 88 92 97 101 102 105 113 114 116 119 121 123 129 132 136 137 138 141 

1 14 15 16 17 20 28 30 34 38 47 48 56 60 61 63 65 72 79 82 85 86 88 92 97 100 101 102 105 107 108 110 113 114 116 119 121 123 129 132 136 137 138 141 

1 14 15 16 17 20 28 30 34 38 47 48 54 56 58 61 63 65 72 79 82 85 86 88 89 92 97 98 100 101 102 105 107 108 110 113 114 116 119 121 123 129 132 136 137 138 141 
1 12 14 15 16 17 28 30 34 38 47 54 58 60 63 65 71 72 79 82 85 86 88 89 97 98 100 102 105 108 110 113 114 116 119 121 123 129 132 136 137 138 141 
8 
1 12 14 15 16 17 28 30 34 38 47 54 58 60 61 65 71 72 79 82 85 86 88 89 97 98 100 102 105 108 110 113 114 116 119 121 123 129 132 136 137 138 141 
3 18 74 94 99 104 
1 14 15 16 17 20 28 30 34 38 47 48 56 58 60 61 63 72 79 82 85 86 88 92 97 98 100 101 102 105 107 108 110 113 114 116 119 121 123 129 132 136 137 138 141 


2 53 115 
13 26 27 45 
19 24 40 53 76 77 80 95 115 122 125 
1 12 14 30 54 61 63 89 100 121 138 141 
1 14 15 16 17 20 28 30 34 38 47 48 56 58 60 61 63 65 79 82 85 86 88 92 97 100 101 102 105 107 108 110 113 114 116 119 121 123 129 132 136 137 138 141 
21 33 44 52 118 135 
3 18 64 94 99 104 109 
142 
19 24 40 53 70 77 80 95 122 125 
19 24 40 53 70 76 80 95 122 125 
4 5 32 87 91 139 
1 14 15 16 17 20 28 30 34 38 47 48 56 58 60 61 63 65 72 82 85 86 88 92 97 98 100 101 102 105 107 108 110 113 114 116 119 121 123 129 132 136 137 138 141 
19 24 40 53 70 76 77 95 122 125 
4 5 32 87 90 108 139 
1 14 15 16 28 30 34 38 47 58 60 61 63 65 72 79 85 86 88 97 100 102 105 108 113 116 119 121 132 136 137 138 141 
130 

1 14 15 16 17 20 28 30 34 38 47 48 56 58 60 61 63 65 72 79 82 86 88 92 97 100 101 102 105 107 108 110 113 114 116 119 121 123 129 132 136 137 138 141 
1 14 15 16 17 20 28 30 34 38 47 48 56 58 60 61 63 65 72 79 82 85 88 92 97 98 100 101 102 105 107 108 110 113 114 116 119 121 123 129 132 136 137 138 141 
4 5 32 78 81 90 91 139 
1 14 15 16 17 20 28 30 34 38 47 48 56 58 60 61 63 65 72 79 82 85 86 92 97 98 100 101 102 105 107 108 110 113 114 116 119 121 123 129 132 136 137 138 141 
1 12 14 30 54 60 61 63 71 97 100 121 138 141 
4 5 32 81 87 108 139 
4 5 32 78 87 139 
1 14 15 16 17 20 28 34 38 47 48 56 58 60 65 72 79 85 86 88 97 101 102 105 113 114 116 119 121 123 129 132 136 137 138 141 
35 49 
3 18 64 74 99 104 109 
19 24 40 53 70 76 77 80 122 125 
11 106 143 
1 14 15 16 17 20 28 30 34 38 47 48 54 56 58 60 61 63 65 72 79 82 85 86 88 89 92 98 100 101 102 105 107 108 110 113 114 116 119 121 123 129 132 136 137 138 141 
1 14 28 60 61 63 65 79 86 88 97 100 105 113 121 132 136 138 141 
3 18 64 74 94 104 109 
1 12 14 15 16 17 28 30 34 38 47 54 58 60 61 63 65 71 72 79 82 85 86 88 89 97 98 102 105 108 110 113 114 116 119 121 123 129 132 136 137 138 141 
1 14 15 16 17 20 28 34 38 47 48 56 58 60 65 72 79 85 86 88 92 97 102 105 107 110 113 114 116 119 121 123 129 132 136 137 138 141 
1 14 15 16 17 20 28 30 34 38 47 48 56 58 60 61 63 65 72 79 82 85 86 88 92 97 100 101 105 107 108 110 113 114 116 119 121 123 129 132 136 137 138 141 

3 18 64 74 94 99 109 
1 14 15 16 17 20 28 30 34 38 47 48 56 58 60 61 63 65 72 79 82 85 86 88 92 97 98 100 101 102 107 108 110 113 114 116 119 121 123 129 132 136 137 138 141 
11 96 143 
1 14 15 16 17 28 34 38 47 48 58 60 65 72 79 85 86 88 97 101 102 105 113 114 116 119 121 123 129 132 136 137 138 141 
1 4 14 15 16 17 28 30 32 34 38 47 58 60 61 63 65 72 79 81 82 85 86 88 90 97 100 102 105 113 116 119 121 123 132 136 137 138 139 141 
3 18 74 94 99 104 
1 14 15 16 17 28 30 34 38 47 48 58 60 61 63 65 72 79 85 86 88 97 100 101 102 105 113 114 116 119 121 123 132 136 137 138 141 
6 39 
9 37 
1 14 15 16 17 20 23 28 30 34 38 47 48 56 58 60 61 63 65 72 79 82 85 86 88 92 97 98 100 101 102 105 107 108 110 114 116 119 121 123 129 132 136 137 138 141 
1 14 15 16 17 20 28 30 34 38 47 48 56 58 60 61 63 65 72 79 85 86 88 92 97 100 101 102 105 107 110 113 116 119 121 123 129 132 136 137 138 141 
2 19 53 68 70 125 
1 14 15 16 17 20 28 30 34 38 47 48 56 58 60 61 63 65 72 79 82 85 86 88 92 97 100 101 102 105 107 108 110 113 114 119 121 123 129 132 136 137 138 141 
23 127 
21 33 44 52 73 135 
1 14 15 16 17 20 28 30 34 38 47 48 56 58 60 61 63 65 72 79 82 85 86 88 92 97 100 101 102 105 107 108 110 113 114 116 121 123 129 132 136 137 138 141 

1 12 14 15 16 17 20 28 30 34 38 47 48 54 56 58 60 61 63 65 71 72 79 82 85 86 88 89 92 97 98 100 101 102 105 107 108 110 113 114 116 119 123 129 132 136 137 138 141 
19 24 40 53 70 76 77 80 95 125 
1 14 15 16 17 20 28 30 34 38 47 48 56 58 60 61 63 65 72 79 85 86 88 92 97 100 101 102 105 107 108 110 113 114 116 119 121 129 132 136 137 138 141 

2 19 24 40 53 70 76 77 80 95 115 122 

23 117 

1 14 15 16 17 20 28 30 34 38 47 48 56 58 60 61 63 65 72 79 85 86 88 92 97 100 101 102 105 107 113 114 116 119 121 123 132 136 137 138 141 
83 

1 14 15 16 17 20 28 30 34 38 47 48 56 58 60 61 63 65 72 79 82 85 86 88 92 97 98 100 101 102 105 107 108 110 113 114 116 119 121 123 129 136 137 138 141 


21 33 44 52 73 118 
1 14 15 16 17 20 28 30 34 38 47 48 56 58 60 61 63 65 72 79 82 85 86 88 92 97 98 100 101 102 105 107 108 110 113 114 116 119 121 123 129 132 137 138 141 
1 14 15 16 17 20 28 30 34 38 47 48 56 58 60 61 63 65 72 79 82 85 86 88 92 97 100 101 102 105 107 108 110 113 114 116 119 121 123 129 132 136 138 141 
1 12 14 15 16 17 20 23 28 30 34 38 47 48 54 56 58 60 61 63 65 71 72 79 82 85 86 88 89 92 97 98 100 101 102 105 107 108 110 113 114 116 119 121 123 129 132 136 137 141 
4 5 32 78 81 87 90 91 108 
41 
1 12 14 15 16 17 20 28 30 34 38 47 48 54 56 58 60 61 63 65 71 72 79 82 85 86 88 89 92 97 98 100 101 102 105 107 108 110 113 114 116 119 121 123 129 132 136 137 138 
75 
11 96 106 

